
  12    4
  10   10   10   10

   0   0   0   0   0   5 2 3 6 7 11 
   6  10  10  10  10   3 10 9 5 
   9  10  10  10  10   2 8 4 
   2  10  10  10  10   2 10 9 
   3  10  10  10  10   1 8 
   6  10  10  10  10   1 9 
   7  10  10  10  10   1 8 
   1  10  10  10  10   1 12
   7  10  10  10  10   1 12
   7  10  10  10  10   1 12
   4  10  10  10  10   1 12
   0   0   0   0   0   0 
